; benchmark generated from python API
(set-info :status unknown)
(declare-fun x_month () (_ BitVec 32))
(declare-fun x_year () (_ BitVec 32))
(declare-fun x_day () (_ BitVec 32))
(assert
 (let (($x3348 (or (= (_ bv4 32) x_month) (= (_ bv6 32) x_month) (= (_ bv9 32) x_month) (= (_ bv11 32) x_month))))
 (let (($x5379 (and (= (_ bv0 32) (bvsmod x_year (_ bv4 32))) (and (distinct (_ bv0 32) (bvsmod x_year (_ bv100 32))) true))))
 (let (($x6492 (= (_ bv2 32) x_month)))
 (let ((?x4534 (ite $x6492 (ite (or $x5379 (= (_ bv0 32) (bvsmod x_year (_ bv400 32)))) (_ bv29 32) (_ bv28 32)) (ite $x3348 (_ bv30 32) (_ bv31 32)))))
 (let (($x4483 (bvsle x_day ?x4534)))
 (let (($x2600 (bvsle (_ bv1 32) x_day)))
 (let (($x5516 (bvsle (_ bv1 32) x_month)))
 (let (($x2124 (bvsge (_ bv12 32) x_month)))
 (let (($x5247 (bvsle (_ bv1901 32) x_year)))
 (or (and (= (_ bv1900 32) x_year) (bvsle (_ bv3 32) x_month) $x2124 $x2600 $x4483) (and $x5247 (bvsge (_ bv2099 32) x_year) $x5516 $x2124 $x2600 $x4483) (and (= (_ bv2100 32) x_year) $x5516 (bvsge (_ bv2 32) x_month) $x2600 $x4483))))))))))))
(assert
 (let (($x6492 (= (_ bv2 32) x_month)))
 (and (= (_ bv2020 32) x_year) $x6492 (= (_ bv29 32) x_day))))
(assert
 (let ((?x5739 (bvadd x_month (bvadd (bvmul (_ bv1 32) (_ bv12 32)) (_ bv0 32)))))
(let ((?x2945 (bvsub (ite (bvuge ?x5739 (_ bv2147483648 32)) (bvsub ?x5739 (_ bv0 32)) ?x5739) (_ bv1 32))))
(let ((?x6104 (bvsmod ?x2945 (_ bv12 32))))
(let ((?x4741 (bvadd ?x6104 (_ bv1 32))))
(let (($x2099 (= (_ bv11 32) ?x4741)))
(let (($x3242 (= (_ bv9 32) ?x4741)))
(let (($x4045 (= (_ bv6 32) ?x4741)))
(let (($x4486 (= (_ bv4 32) ?x4741)))
(let ((?x2538 (bvsdiv ?x2945 (_ bv12 32))))
(let ((?x5500 (ite (and (bvuge ?x2945 (_ bv2147483648 32)) (and (distinct (_ bv0 32) ?x6104) true)) (bvsub ?x2538 (_ bv1 32)) ?x2538)))
(let ((?x1505 (bvadd x_year ?x5500)))
(let (($x1271 (or (and (= (_ bv0 32) (bvsmod ?x1505 (_ bv4 32))) (and (distinct (_ bv0 32) (bvsmod ?x1505 (_ bv100 32))) true)) (= (_ bv0 32) (bvsmod ?x1505 (_ bv400 32))))))
(let (($x700 (= (_ bv2 32) ?x4741)))
(let ((?x4827 (ite $x700 (ite $x1271 (_ bv29 32) (_ bv28 32)) (ite (or $x4486 $x4045 $x3242 $x2099) (_ bv30 32) (_ bv31 32)))))
(let ((?x3359 (ite (bvsgt (_ bv1 32) x_day) (_ bv1 32) (ite (bvsgt x_day ?x4827) ?x4827 x_day))))
(let ((?x5773 (ite (bvsgt (_ bv1 32) ?x3359) (_ bv1 32) (ite (bvsgt ?x3359 ?x4827) ?x4827 ?x3359))))
(let ((?x2086 (ite $x700 (ite $x1271 (_ bv31 32) (_ bv31 32)) (ite (= (_ bv1 32) ?x4741) (ite $x1271 (_ bv0 32) (_ bv0 32)) (_ bv0 32)))))
(let ((?x6884 (ite $x4486 (ite $x1271 (_ bv91 32) (_ bv90 32)) (ite (= (_ bv3 32) ?x4741) (ite $x1271 (_ bv60 32) (_ bv59 32)) ?x2086))))
(let ((?x2799 (ite $x4045 (ite $x1271 (_ bv152 32) (_ bv151 32)) (ite (= (_ bv5 32) ?x4741) (ite $x1271 (_ bv121 32) (_ bv120 32)) ?x6884))))
(let ((?x4565 (ite (= (_ bv8 32) ?x4741) (ite $x1271 (_ bv213 32) (_ bv212 32)) (ite (= (_ bv7 32) ?x4741) (ite $x1271 (_ bv182 32) (_ bv181 32)) ?x2799))))
(let ((?x3969 (ite (= (_ bv10 32) ?x4741) (ite $x1271 (_ bv274 32) (_ bv273 32)) (ite $x3242 (ite $x1271 (_ bv244 32) (_ bv243 32)) ?x4565))))
(let ((?x2428 (ite (= (_ bv12 32) ?x4741) (ite $x1271 (_ bv335 32) (_ bv334 32)) (ite $x2099 (ite $x1271 (_ bv305 32) (_ bv304 32)) ?x3969))))
(let ((?x4302 (bvadd (bvmul (_ bv365 32) (bvsub ?x1505 (_ bv1 32))) (bvsdiv (bvsub ?x1505 (_ bv1 32)) (_ bv4 32)))))
(let ((?x4110 (bvadd (bvsub ?x4302 (bvsdiv (bvsub ?x1505 (_ bv1 32)) (_ bv100 32))) (bvsdiv (bvsub ?x1505 (_ bv1 32)) (_ bv400 32)))))
(let ((?x6468 (bvadd (bvadd (bvsub (bvadd (bvadd ?x4110 ?x2428) (bvsub ?x5773 (_ bv1 32))) (_ bv730179 32)) (_ bv0 32)) (_ bv730179 32))))
(let ((?x6380 (bvsmod ?x6468 (_ bv146097 32))))
(let ((?x3345 (bvsdiv ?x6380 (_ bv36524 32))))
(let ((?x6349 (ite (bvsle (_ bv4 32) ?x3345) (_ bv3 32) ?x3345)))
(let ((?x2297 (bvsub ?x6380 (bvmul ?x6349 (_ bv36524 32)))))
(let ((?x1618 (bvsmod ?x2297 (_ bv1461 32))))
(let ((?x5622 (bvsdiv ?x1618 (_ bv365 32))))
(let ((?x6300 (ite (bvsle (_ bv4 32) ?x5622) (_ bv3 32) ?x5622)))
(let ((?x5741 (bvadd (bvadd (bvmul (bvsdiv ?x6468 (_ bv146097 32)) (_ bv400 32)) (bvmul ?x6349 (_ bv100 32))) (bvmul (bvsdiv ?x2297 (_ bv1461 32)) (_ bv4 32)))))
(let ((?x5107 (bvadd (bvadd ?x5741 ?x6300) (_ bv1 32))))
(let (($x6746 (or (and (= (_ bv0 32) (bvsmod ?x5107 (_ bv4 32))) (and (distinct (_ bv0 32) (bvsmod ?x5107 (_ bv100 32))) true)) (= (_ bv0 32) (bvsmod ?x5107 (_ bv400 32))))))
(let ((?x6610 (bvsub ?x1618 (bvmul ?x6300 (_ bv365 32)))))
(let ((?x5802 (ite $x6746 (_ bv31 32) (_ bv31 32))))
(let (($x3712 (bvsge ?x6610 ?x5802)))
(let ((?x5767 (ite $x3712 (bvadd (bvsub ?x6610 ?x5802) (_ bv1 32)) (bvadd (bvsub ?x6610 (ite $x6746 (_ bv0 32) (_ bv0 32))) (_ bv1 32)))))
(let ((?x4878 (ite $x6746 (_ bv60 32) (_ bv59 32))))
(let (($x3124 (bvsge ?x6610 ?x4878)))
(let ((?x3687 (ite $x6746 (_ bv91 32) (_ bv90 32))))
(let (($x1268 (bvsge ?x6610 ?x3687)))
(let ((?x5350 (ite $x1268 (bvadd (bvsub ?x6610 ?x3687) (_ bv1 32)) (ite $x3124 (bvadd (bvsub ?x6610 ?x4878) (_ bv1 32)) ?x5767))))
(let ((?x4208 (ite $x6746 (_ bv121 32) (_ bv120 32))))
(let (($x2554 (bvsge ?x6610 ?x4208)))
(let ((?x5800 (ite $x6746 (_ bv152 32) (_ bv151 32))))
(let (($x3791 (bvsge ?x6610 ?x5800)))
(let ((?x6712 (ite $x3791 (bvadd (bvsub ?x6610 ?x5800) (_ bv1 32)) (ite $x2554 (bvadd (bvsub ?x6610 ?x4208) (_ bv1 32)) ?x5350))))
(let ((?x6431 (ite $x6746 (_ bv182 32) (_ bv181 32))))
(let (($x3292 (bvsge ?x6610 ?x6431)))
(let ((?x731 (ite $x6746 (_ bv213 32) (_ bv212 32))))
(let (($x1856 (bvsge ?x6610 ?x731)))
(let ((?x4696 (ite $x1856 (bvadd (bvsub ?x6610 ?x731) (_ bv1 32)) (ite $x3292 (bvadd (bvsub ?x6610 ?x6431) (_ bv1 32)) ?x6712))))
(let ((?x5401 (ite $x6746 (_ bv244 32) (_ bv243 32))))
(let (($x5343 (bvsge ?x6610 ?x5401)))
(let ((?x6890 (ite $x6746 (_ bv274 32) (_ bv273 32))))
(let (($x4171 (bvsge ?x6610 ?x6890)))
(let ((?x1340 (ite $x4171 (bvadd (bvsub ?x6610 ?x6890) (_ bv1 32)) (ite $x5343 (bvadd (bvsub ?x6610 ?x5401) (_ bv1 32)) ?x4696))))
(let ((?x3961 (ite $x6746 (_ bv305 32) (_ bv304 32))))
(let (($x5324 (bvsge ?x6610 ?x3961)))
(let ((?x4930 (ite $x6746 (_ bv335 32) (_ bv334 32))))
(let (($x4113 (bvsge ?x6610 ?x4930)))
(let ((?x6799 (ite $x4113 (bvadd (bvsub ?x6610 ?x4930) (_ bv1 32)) (ite $x5324 (bvadd (bvsub ?x6610 ?x3961) (_ bv1 32)) ?x1340))))
(let (($x4379 (= (_ bv0 32) (_ bv0 32))))
(let ((?x4661 (ite $x3791 (_ bv6 32) (ite $x2554 (_ bv5 32) (ite $x1268 (_ bv4 32) (ite $x3124 (_ bv3 32) (ite $x3712 (_ bv2 32) (_ bv1 32))))))))
(let ((?x6699 (ite $x5324 (_ bv11 32) (ite $x4171 (_ bv10 32) (ite $x5343 (_ bv9 32) (ite $x1856 (_ bv8 32) (ite $x3292 (_ bv7 32) ?x4661)))))))
(and (= (_ bv2021 32) (ite $x4379 ?x1505 ?x5107)) (= (_ bv2 32) (ite $x4379 ?x4741 (ite $x4113 (_ bv12 32) ?x6699))) (= (_ bv28 32) (ite $x4379 ?x5773 ?x6799)))))))))))))))))))))))))))))))))))))))))))))))))))))))))))))))))))))))
(check-sat)
